100
23 1
20 21
17 62
16 51
29 31
24 27
21 91
12 7
12 22
13 7
16 30
12 28
14 52
26 38
26 91
12 63
5 22
4 43
26 24
7 0
9 75
6 81
21 2
15 78
8 63
25 58
6 26
18 67
15 83
24 14
7 14
16 19
24 14
19 20
2 60
15 98
20 3
26 53
24 73
6 31
9 22
18 81
8 27
12 26
12 5
19 37
6 21
16 7
9 70
12 27
15 51
15 17
10 57
0 61
14 54
28 66
29 85
14 76
14 99
7 27
4 46
8 28
16 72
24 56
13 15
29 76
3 60
18 74
17 15
2 0
17 83
8 50
17 18
0 32
19 33
20 27
25 75
17 0
6 91
29 93
9 91
1 78
4 14
10 69
22 43
6 52
4 89
9 94
28 81
15 29
16 90
17 47
9 64
7 17
0 55
26 66
26 80
14 49
1 0
13 76
